Version identifier: 22.1.1.0 | 2022-11-28 | 9160aff4d
CPXPARAM_ClockType                               1
CPXPARAM_Read_DataCheck                          1
CPXPARAM_Threads                                 1
CPXPARAM_Simplex_Tolerances_Optimality           1.0000000000000001e-09
CPXPARAM_TimeLimit                               7200
CPXPARAM_MIP_Tolerances_AbsMIPGap                0
CPXPARAM_MIP_Tolerances_MIPGap                   0
CPXPARAM_MIP_Tolerances_Integrality              0
Tried aggregator 6 times.
MIQP Presolve eliminated 31346 rows and 3958 columns.
MIQP Presolve modified 5175 coefficients.
Aggregator did 6201 substitutions.
Reduced MIQP has 516014 rows, 151641 columns, and 1603178 nonzeros.
Reduced MIQP has 143851 binaries, 7790 generals, 0 SOSs, and 0 indicators.
Reduced MIQP objective Q matrix has 7790 nonzeros.
Presolve time = 5.38 sec. (2979.57 ticks)
Probing fixed 268 vars, tightened 268 bounds.
Probing time = 5.53 sec. (1393.01 ticks)
Tried aggregator 3 times.
MIQP Presolve eliminated 4955 rows and 1665 columns.
MIQP Presolve modified 244 coefficients.
Aggregator did 373 substitutions.
Reduced MIQP has 510686 rows, 149603 columns, and 1589657 nonzeros.
Reduced MIQP has 141819 binaries, 7784 generals, 0 SOSs, and 0 indicators.
Reduced MIQP objective Q matrix has 7784 nonzeros.
Presolve time = 7.62 sec. (3894.55 ticks)
Classifier predicts products in MIQP should be linearized.
Probing time = 0.16 sec. (37.66 ticks)
Clique table members: 851388.
MIP emphasis: balance optimality and feasibility.
MIP search method: dynamic search.
Parallel mode: none, using 1 thread.
Root relaxation solution time = 7179.56 sec. (17586122.30 ticks)

        Nodes                                         Cuts/
   Node  Left     Objective  IInf  Best Integer    Best Bound    ItCnt     Gap

      0     0   1.00000e+37     0                 776318.0000   271384         

Root node processing (before b&c):
  Real time             = 7200.52 sec. (17595194.22 ticks)
Sequential b&c:
  Real time             =    0.00 sec. (0.00 ticks)
                          ------------
Total (root+branch&cut) = 7200.52 sec. (17595194.22 ticks)
Solution is infeasible.

---------------------
@@@ MIP_time_limit_infeasible
Traceback (most recent call last):
  File "/scratch/scherif/DiverseSAT-journal_sup/DiverseSAT_Supplementary_Experiments/experiment-1/cplex/jobs/../solvers/CPLEX-QP-SE.py", line 118, in <module>
    print(f">>> Benchmark {os.path.basename(cnf_file)} k {k} OPT {int(prob.solution.get_objective_value())}"
  File "/users/scherif/.local/lib/python3.9/site-packages/cplex/_internal/_subinterfaces.py", line 7211, in get_objective_value
    return CPX_PROC.getobjval(self._env._e, self._cplex._lp)
  File "/users/scherif/.local/lib/python3.9/site-packages/cplex/_internal/_procedural.py", line 2055, in getobjval
    check_status(env, status)
  File "/users/scherif/.local/lib/python3.9/site-packages/cplex/_internal/_procedural.py", line 249, in __call__
    raise CplexSolverError(error_string, env, status)
cplex.exceptions.errors.CplexSolverError: CPLEX Error  1217: No solution exists.
